Results/Experiment 1 Results/New Benchmark/RES_20/output_p1_0.00_p2_0.00_n_20_01.txt
solutions: 72 nodes: 130  modelTime: 108  solveTime: 25  totalTime: 134  modelSize: 7358  readTime: 1 matchingSize: 10
