Results/Experiment 2 Results/New Benchmark/output_p1_0.00_p2_0.00_n_20_01.lp
clingo version 5.4.0
Reading from tempSRTISolver.lp ...
Solving...
Answer: 1
matched(6,2) matched(1,3) matched(8,4) matched(7,5) matched(2,6) matched(5,7) matched(4,8) matched(9,10) matched(12,11) matched(11,12) matched(10,9) matched(18,14) matched(13,15) matched(20,16) matched(19,17) matched(14,18) matched(17,19) matched(16,20) matched(15,13) matched(3,1)
Optimization: 107
Answer: 2
matched(8,2) matched(6,3) matched(1,4) matched(7,5) matched(3,6) matched(5,7) matched(2,8) matched(9,10) matched(12,11) matched(11,12) matched(10,9) matched(18,14) matched(13,15) matched(20,16) matched(19,17) matched(14,18) matched(17,19) matched(16,20) matched(15,13) matched(4,1)
Optimization: 106
Answer: 3
matched(7,2) matched(6,3) matched(1,4) matched(8,5) matched(3,6) matched(2,7) matched(5,8) matched(9,10) matched(12,11) matched(11,12) matched(10,9) matched(18,14) matched(13,15) matched(20,16) matched(19,17) matched(14,18) matched(17,19) matched(16,20) matched(15,13) matched(4,1)
Optimization: 105
Answer: 4
matched(7,2) matched(8,3) matched(1,4) matched(6,5) matched(5,6) matched(2,7) matched(3,8) matched(9,10) matched(12,11) matched(11,12) matched(10,9) matched(20,14) matched(18,15) matched(13,16) matched(19,17) matched(15,18) matched(17,19) matched(14,20) matched(16,13) matched(4,1)
Optimization: 104
Answer: 5
matched(1,2) matched(6,3) matched(7,4) matched(8,5) matched(3,6) matched(4,7) matched(5,8) matched(9,10) matched(12,11) matched(11,12) matched(10,9) matched(20,14) matched(18,15) matched(13,16) matched(19,17) matched(15,18) matched(17,19) matched(14,20) matched(16,13) matched(2,1)
Optimization: 103
Answer: 6
matched(7,2) matched(6,3) matched(1,4) matched(8,5) matched(3,6) matched(2,7) matched(5,8) matched(9,10) matched(12,11) matched(11,12) matched(10,9) matched(20,14) matched(18,15) matched(13,16) matched(19,17) matched(15,18) matched(17,19) matched(14,20) matched(16,13) matched(4,1)
Optimization: 102
OPTIMUM FOUND

Models       : 6
  Optimum    : yes
Optimization : 102
Calls        : 1
Time         : 0.107s (Solving: 0.01s 1st Model: 0.00s Unsat: 0.00s)
CPU Time     : 0.103s
